Route #1: 6 51 33
Route #2: 1 23 43 41 42
Route #3: 22 28 2
Route #4: 30 48 29
Route #5: 4 45 34
Route #6: 46 52 27
Route #7: 5 47 21
Route #8: 36 37 20 15 13
Route #9: 54 19 8 7
Route #10: 35 14 53
Route #11: 11 38
Route #12: 10 31 39
Route #13: 9 25 50
Route #14: 18 24 49 16
Route #15: 3 44 32
Route #16: 40 12 17
Route #17: 26
Cost 986